NAME: cum170.tsp
TYPE: TSP
COMMENT: User-generated TSP file
DIMENSION: 850
EDGE_WEIGHT_TYPE: EUC_2D
NODE_COORD_SECTION
1 780.0 589.0
2 769.0 34.0
3 6.0 735.0
4 413.0 679.0
5 439.0 698.0
6 712.0 752.0
7 16.0 257.0
8 341.0 498.0
9 376.0 230.0
10 625.0 69.0
11 107.0 829.0
12 294.0 216.0
13 418.0 99.0
14 513.0 564.0
15 528.0 121.0
16 554.0 608.0
17 698.0 681.0
18 278.0 308.0
19 382.0 772.0
20 207.0 27.0
21 216.0 707.0
22 59.0 758.0
23 138.0 207.0
24 225.0 24.0
25 155.0 772.0
26 768.0 387.0
27 771.0 395.0
28 681.0 327.0
29 504.0 150.0
30 610.0 799.0
31 408.0 773.0
32 586.0 188.0
33 217.0 689.0
34 611.0 473.0
35 369.0 222.0
36 772.0 42.0
37 559.0 18.0
38 577.0 383.0
39 300.0 518.0
40 602.0 613.0
41 610.0 20.0
42 707.0 725.0
43 793.0 750.0
44 107.0 326.0
45 124.0 610.0
46 70.0 759.0
47 802.0 242.0
48 396.0 454.0
49 628.0 733.0
50 117.0 78.0
51 592.0 157.0
52 177.0 40.0
53 41.0 663.0
54 404.0 468.0
55 46.0 814.0
56 348.0 786.0
57 836.0 365.0
58 465.0 667.0
59 73.0 428.0
60 830.0 327.0
61 558.0 171.0
62 774.0 334.0
63 249.0 271.0
64 39.0 426.0
65 532.0 279.0
66 414.0 584.0
67 9.0 759.0
68 403.0 119.0
69 822.0 29.0
70 78.0 358.0
71 437.0 397.0
72 384.0 399.0
73 201.0 83.0
74 530.0 744.0
75 736.0 517.0
76 693.0 684.0
77 9.0 749.0
78 36.0 765.0
79 190.0 212.0
80 66.0 747.0
81 187.0 149.0
82 754.0 604.0
83 245.0 275.0
84 657.0 405.0
85 138.0 451.0
86 258.0 304.0
87 29.0 188.0
88 802.0 707.0
89 356.0 35.0
90 351.0 320.0
91 163.0 450.0
92 781.0 314.0
93 18.0 439.0
94 457.0 193.0
95 627.0 201.0
96 794.0 472.0
97 126.0 507.0
98 25.0 697.0
99 34.0 39.0
100 492.0 56.0
101 564.0 727.0
102 699.0 331.0
103 78.0 698.0
104 115.0 110.0
105 674.0 822.0
106 377.0 457.0
107 165.0 273.0
108 127.0 70.0
109 299.0 310.0
110 99.0 471.0
111 578.0 846.0
112 448.0 649.0
113 188.0 161.0
114 238.0 830.0
115 441.0 125.0
116 153.0 629.0
117 338.0 475.0
118 426.0 213.0
119 627.0 348.0
120 640.0 429.0
121 558.0 303.0
122 724.0 747.0
123 18.0 426.0
124 102.0 681.0
125 399.0 397.0
126 55.0 585.0
127 646.0 413.0
128 745.0 836.0
129 796.0 423.0
130 463.0 741.0
131 448.0 525.0
132 733.0 688.0
133 320.0 686.0
134 308.0 323.0
135 503.0 105.0
136 479.0 289.0
137 769.0 524.0
138 426.0 827.0
139 183.0 710.0
140 505.0 499.0
141 341.0 452.0
142 515.0 100.0
143 379.0 513.0
144 834.0 819.0
145 266.0 595.0
146 646.0 557.0
147 759.0 309.0
148 441.0 502.0
149 50.0 128.0
150 73.0 219.0
151 322.0 584.0
152 469.0 707.0
153 393.0 779.0
154 394.0 592.0
155 296.0 161.0
156 601.0 668.0
157 783.0 451.0
158 837.0 320.0
159 596.0 525.0
160 549.0 435.0
161 511.0 510.0
162 405.0 153.0
163 398.0 358.0
164 220.0 94.0
165 468.0 209.0
166 392.0 145.0
167 776.0 773.0
168 336.0 713.0
169 629.0 266.0
170 140.0 790.0
171 214.0 88.0
172 38.0 594.0
173 595.0 333.0
174 477.0 706.0
175 821.0 148.0
176 493.0 44.0
177 228.0 787.0
178 282.0 99.0
179 818.0 586.0
180 198.0 804.0
181 218.0 187.0
182 420.0 408.0
183 286.0 847.0
184 403.0 113.0
185 759.0 634.0
186 662.0 455.0
187 58.0 485.0
188 672.0 817.0
189 783.0 761.0
190 327.0 82.0
191 167.0 671.0
192 202.0 536.0
193 264.0 804.0
194 223.0 632.0
195 771.0 365.0
196 322.0 422.0
197 816.0 88.0
198 250.0 831.0
199 559.0 652.0
200 263.0 795.0
201 405.0 544.0
202 504.0 304.0
203 433.0 65.0
204 172.0 819.0
205 373.0 223.0
206 795.0 645.0
207 317.0 205.0
208 329.0 78.0
209 444.0 84.0
210 660.0 432.0
211 534.0 384.0
212 665.0 467.0
213 271.0 617.0
214 224.0 217.0
215 31.0 274.0
216 544.0 561.0
217 437.0 113.0
218 327.0 551.0
219 467.0 481.0
220 505.0 93.0
221 644.0 796.0
222 651.0 352.0
223 522.0 5.0
224 291.0 565.0
225 89.0 71.0
226 539.0 598.0
227 720.0 199.0
228 407.0 412.0
229 524.0 833.0
230 710.0 506.0
231 581.0 408.0
232 842.0 231.0
233 295.0 77.0
234 442.0 540.0
235 152.0 608.0
236 347.0 158.0
237 706.0 168.0
238 243.0 588.0
239 178.0 813.0
240 229.0 135.0
241 727.0 472.0
242 187.0 67.0
243 325.0 637.0
244 98.0 638.0
245 313.0 324.0
246 521.0 413.0
247 30.0 198.0
248 686.0 761.0
249 613.0 225.0
250 589.0 815.0
251 637.0 220.0
252 813.0 338.0
253 399.0 708.0
254 161.0 206.0
255 220.0 603.0
256 779.0 810.0
257 734.0 801.0
258 617.0 648.0
259 677.0 371.0
260 712.0 84.0
261 511.0 213.0
262 605.0 566.0
263 350.0 387.0
264 795.0 301.0
265 163.0 713.0
266 699.0 455.0
267 95.0 407.0
268 744.0 465.0
269 229.0 169.0
270 475.0 684.0
271 226.0 842.0
272 349.0 822.0
273 119.0 538.0
274 192.0 675.0
275 792.0 114.0
276 433.0 120.0
277 115.0 573.0
278 515.0 327.0
279 75.0 159.0
280 4.0 806.0
281 699.0 574.0
282 601.0 594.0
283 54.0 248.0
284 531.0 593.0
285 844.0 638.0
286 110.0 788.0
287 651.0 683.0
288 177.0 586.0
289 112.0 6.0
290 289.0 624.0
291 86.0 374.0
292 203.0 134.0
293 63.0 177.0
294 489.0 231.0
295 472.0 26.0
296 161.0 201.0
297 755.0 492.0
298 474.0 642.0
299 495.0 200.0
300 658.0 197.0
301 801.0 334.0
302 800.0 811.0
303 383.0 440.0
304 104.0 230.0
305 83.0 422.0
306 762.0 309.0
307 550.0 767.0
308 300.0 459.0
309 13.0 298.0
310 648.0 139.0
311 725.0 609.0
312 687.0 310.0
313 317.0 785.0
314 352.0 413.0
315 319.0 410.0
316 627.0 570.0
317 206.0 634.0
318 225.0 529.0
319 579.0 137.0
320 130.0 96.0
321 422.0 58.0
322 564.0 283.0
323 481.0 606.0
324 237.0 461.0
325 742.0 93.0
326 149.0 47.0
327 829.0 69.0
328 644.0 455.0
329 51.0 428.0
330 789.0 319.0
331 111.0 6.0
332 703.0 273.0
333 685.0 617.0
334 297.0 552.0
335 703.0 267.0
336 580.0 251.0
337 345.0 792.0
338 57.0 620.0
339 616.0 744.0
340 291.0 762.0
341 677.0 432.0
342 113.0 68.0
343 401.0 717.0
344 613.0 196.0
345 373.0 264.0
346 555.0 742.0
347 220.0 250.0
348 203.0 24.0
349 462.0 382.0
350 581.0 511.0
351 710.0 23.0
352 134.0 718.0
353 316.0 717.0
354 840.0 393.0
355 509.0 65.0
356 539.0 22.0
357 733.0 57.0
358 745.0 421.0
359 368.0 789.0
360 500.0 530.0
361 615.0 438.0
362 101.0 831.0
363 82.0 753.0
364 806.0 643.0
365 260.0 786.0
366 359.0 255.0
367 444.0 480.0
368 668.0 511.0
369 589.0 339.0
370 178.0 502.0
371 39.0 118.0
372 829.0 798.0
373 368.0 68.0
374 716.0 54.0
375 263.0 680.0
376 770.0 677.0
377 464.0 669.0
378 339.0 239.0
379 187.0 662.0
380 119.0 192.0
381 531.0 333.0
382 289.0 699.0
383 93.0 126.0
384 366.0 447.0
385 821.0 197.0
386 599.0 719.0
387 598.0 734.0
388 172.0 129.0
389 235.0 835.0
390 453.0 758.0
391 176.0 214.0
392 297.0 703.0
393 764.0 383.0
394 450.0 105.0
395 479.0 291.0
396 800.0 797.0
397 287.0 430.0
398 522.0 663.0
399 204.0 199.0
400 42.0 702.0
401 337.0 174.0
402 423.0 106.0
403 520.0 815.0
404 717.0 623.0
405 305.0 316.0
406 136.0 586.0
407 812.0 177.0
408 199.0 365.0
409 133.0 678.0
410 780.0 262.0
411 502.0 711.0
412 599.0 480.0
413 260.0 216.0
414 89.0 429.0
415 500.0 832.0
416 806.0 58.0
417 232.0 318.0
418 589.0 658.0
419 790.0 116.0
420 563.0 708.0
421 8.0 717.0
422 402.0 297.0
423 262.0 155.0
424 633.0 287.0
425 80.0 324.0
426 836.0 820.0
427 486.0 820.0
428 122.0 263.0
429 682.0 547.0
430 468.0 550.0
431 55.0 641.0
432 42.0 748.0
433 121.0 2.0
434 661.0 517.0
435 375.0 274.0
436 538.0 299.0
437 434.0 462.0
438 746.0 198.0
439 180.0 783.0
440 612.0 799.0
441 277.0 142.0
442 845.0 779.0
443 575.0 228.0
444 688.0 72.0
445 463.0 424.0
446 523.0 17.0
447 18.0 202.0
448 325.0 637.0
449 15.0 196.0
450 372.0 609.0
451 74.0 684.0
452 603.0 547.0
453 322.0 345.0
454 178.0 557.0
455 468.0 389.0
456 442.0 160.0
457 405.0 799.0
458 454.0 365.0
459 102.0 517.0
460 189.0 628.0
461 47.0 730.0
462 106.0 61.0
463 253.0 82.0
464 679.0 672.0
465 76.0 598.0
466 776.0 448.0
467 163.0 238.0
468 48.0 210.0
469 489.0 603.0
470 315.0 509.0
471 668.0 448.0
472 820.0 617.0
473 765.0 406.0
474 622.0 488.0
475 15.0 465.0
476 311.0 50.0
477 512.0 22.0
478 520.0 460.0
479 171.0 581.0
480 322.0 339.0
481 602.0 170.0
482 605.0 98.0
483 128.0 351.0
484 448.0 91.0
485 169.0 740.0
486 839.0 93.0
487 409.0 512.0
488 265.0 121.0
489 194.0 710.0
490 531.0 96.0
491 810.0 371.0
492 415.0 42.0
493 738.0 527.0
494 3.0 282.0
495 190.0 253.0
496 312.0 39.0
497 95.0 534.0
498 105.0 710.0
499 191.0 228.0
500 190.0 667.0
501 701.0 337.0
502 363.0 231.0
503 419.0 341.0
504 464.0 51.0
505 753.0 42.0
506 455.0 543.0
507 295.0 702.0
508 539.0 98.0
509 420.0 83.0
510 683.0 334.0
511 455.0 813.0
512 711.0 843.0
513 84.0 286.0
514 636.0 656.0
515 44.0 685.0
516 106.0 61.0
517 276.0 293.0
518 602.0 777.0
519 779.0 392.0
520 84.0 66.0
521 516.0 619.0
522 842.0 773.0
523 196.0 458.0
524 56.0 755.0
525 643.0 337.0
526 751.0 565.0
527 550.0 126.0
528 178.0 371.0
529 117.0 402.0
530 836.0 529.0
531 725.0 220.0
532 248.0 721.0
533 178.0 617.0
534 690.0 564.0
535 103.0 609.0
536 111.0 145.0
537 438.0 323.0
538 122.0 729.0
539 812.0 44.0
540 655.0 221.0
541 470.0 750.0
542 363.0 689.0
543 118.0 522.0
544 544.0 394.0
545 248.0 207.0
546 666.0 45.0
547 373.0 400.0
548 696.0 385.0
549 355.0 603.0
550 658.0 54.0
551 549.0 95.0
552 12.0 8.0
553 420.0 764.0
554 254.0 772.0
555 249.0 285.0
556 624.0 320.0
557 752.0 183.0
558 761.0 190.0
559 700.0 617.0
560 472.0 740.0
561 756.0 298.0
562 672.0 411.0
563 208.0 472.0
564 302.0 789.0
565 392.0 267.0
566 780.0 755.0
567 666.0 612.0
568 345.0 765.0
569 750.0 194.0
570 719.0 226.0
571 712.0 327.0
572 720.0 716.0
573 652.0 16.0
574 288.0 671.0
575 150.0 532.0
576 298.0 526.0
577 180.0 374.0
578 548.0 541.0
579 284.0 512.0
580 821.0 24.0
581 817.0 156.0
582 556.0 515.0
583 711.0 482.0
584 666.0 550.0
585 88.0 703.0
586 271.0 183.0
587 248.0 738.0
588 5.0 170.0
589 233.0 619.0
590 241.0 646.0
591 369.0 810.0
592 36.0 135.0
593 494.0 622.0
594 152.0 136.0
595 611.0 742.0
596 556.0 265.0
597 551.0 823.0
598 423.0 608.0
599 542.0 104.0
600 711.0 342.0
601 653.0 487.0
602 33.0 482.0
603 47.0 4.0
604 621.0 429.0
605 555.0 354.0
606 581.0 182.0
607 633.0 310.0
608 70.0 7.0
609 244.0 191.0
610 108.0 170.0
611 172.0 436.0
612 502.0 314.0
613 479.0 9.0
614 749.0 749.0
615 609.0 848.0
616 580.0 672.0
617 74.0 672.0
618 15.0 463.0
619 285.0 7.0
620 666.0 636.0
621 326.0 32.0
622 547.0 589.0
623 19.0 434.0
624 144.0 437.0
625 281.0 92.0
626 763.0 528.0
627 336.0 514.0
628 432.0 412.0
629 11.0 624.0
630 654.0 76.0
631 342.0 121.0
632 345.0 566.0
633 254.0 136.0
634 208.0 117.0
635 817.0 68.0
636 294.0 484.0
637 268.0 663.0
638 647.0 265.0
639 481.0 458.0
640 302.0 691.0
641 177.0 591.0
642 551.0 429.0
643 678.0 352.0
644 104.0 589.0
645 361.0 141.0
646 53.0 431.0
647 681.0 361.0
648 800.0 479.0
649 714.0 472.0
650 21.0 350.0
651 375.0 795.0
652 8.0 747.0
653 639.0 616.0
654 58.0 139.0
655 392.0 271.0
656 629.0 412.0
657 784.0 473.0
658 74.0 66.0
659 807.0 63.0
660 142.0 182.0
661 84.0 771.0
662 267.0 703.0
663 659.0 406.0
664 231.0 661.0
665 483.0 787.0
666 844.0 36.0
667 437.0 777.0
668 193.0 107.0
669 340.0 478.0
670 658.0 206.0
671 531.0 260.0
672 642.0 632.0
673 833.0 685.0
674 665.0 736.0
675 466.0 652.0
676 199.0 12.0
677 759.0 776.0
678 182.0 337.0
679 684.0 373.0
680 470.0 387.0
681 112.0 776.0
682 236.0 843.0
683 588.0 586.0
684 447.0 617.0
685 375.0 480.0
686 138.0 695.0
687 560.0 664.0
688 582.0 839.0
689 205.0 411.0
690 607.0 24.0
691 561.0 278.0
692 316.0 555.0
693 127.0 239.0
694 379.0 216.0
695 126.0 143.0
696 170.0 736.0
697 835.0 531.0
698 509.0 134.0
699 51.0 585.0
700 780.0 57.0
701 700.0 451.0
702 31.0 454.0
703 5.0 843.0
704 729.0 624.0
705 588.0 187.0
706 100.0 368.0
707 231.0 175.0
708 102.0 618.0
709 576.0 546.0
710 305.0 147.0
711 11.0 10.0
712 407.0 354.0
713 609.0 290.0
714 613.0 88.0
715 117.0 813.0
716 448.0 464.0
717 198.0 221.0
718 456.0 37.0
719 781.0 840.0
720 594.0 314.0
721 741.0 688.0
722 762.0 462.0
723 134.0 338.0
724 284.0 352.0
725 659.0 796.0
726 244.0 649.0
727 675.0 279.0
728 322.0 270.0
729 30.0 143.0
730 638.0 640.0
731 599.0 174.0
732 289.0 284.0
733 526.0 424.0
734 213.0 690.0
735 329.0 818.0
736 332.0 144.0
737 666.0 751.0
738 408.0 616.0
739 10.0 233.0
740 584.0 628.0
741 145.0 821.0
742 113.0 409.0
743 329.0 683.0
744 402.0 831.0
745 464.0 829.0
746 108.0 635.0
747 754.0 434.0
748 270.0 37.0
749 325.0 229.0
750 792.0 653.0
751 589.0 703.0
752 807.0 221.0
753 460.0 44.0
754 725.0 469.0
755 713.0 450.0
756 297.0 90.0
757 4.0 825.0
758 612.0 432.0
759 790.0 728.0
760 716.0 712.0
761 440.0 368.0
762 429.0 572.0
763 403.0 549.0
764 641.0 768.0
765 366.0 674.0
766 787.0 644.0
767 185.0 650.0
768 197.0 288.0
769 722.0 43.0
770 578.0 697.0
771 619.0 306.0
772 212.0 60.0
773 560.0 394.0
774 514.0 315.0
775 45.0 237.0
776 123.0 652.0
777 461.0 349.0
778 209.0 306.0
779 198.0 297.0
780 690.0 418.0
781 361.0 118.0
782 201.0 244.0
783 760.0 671.0
784 510.0 103.0
785 311.0 737.0
786 355.0 580.0
787 213.0 378.0
788 431.0 90.0
789 736.0 180.0
790 277.0 596.0
791 485.0 658.0
792 454.0 461.0
793 509.0 461.0
794 70.0 810.0
795 281.0 772.0
796 236.0 114.0
797 92.0 481.0
798 283.0 482.0
799 380.0 139.0
800 501.0 225.0
801 744.0 223.0
802 150.0 114.0
803 247.0 761.0
804 758.0 159.0
805 683.0 374.0
806 370.0 570.0
807 550.0 661.0
808 392.0 758.0
809 608.0 671.0
810 341.0 147.0
811 195.0 591.0
812 742.0 727.0
813 645.0 212.0
814 602.0 535.0
815 177.0 154.0
816 708.0 741.0
817 34.0 40.0
818 838.0 472.0
819 222.0 479.0
820 2.0 289.0
821 530.0 238.0
822 809.0 494.0
823 48.0 183.0
824 28.0 763.0
825 526.0 733.0
826 812.0 559.0
827 269.0 554.0
828 577.0 41.0
829 94.0 509.0
830 363.0 846.0
831 15.0 165.0
832 515.0 369.0
833 764.0 289.0
834 469.0 692.0
835 182.0 418.0
836 470.0 639.0
837 292.0 196.0
838 608.0 97.0
839 681.0 238.0
840 281.0 428.0
841 815.0 30.0
842 705.0 467.0
843 66.0 258.0
844 558.0 377.0
845 555.0 593.0
846 601.0 268.0
847 548.0 77.0
848 719.0 649.0
849 456.0 175.0
850 280.0 153.0
EOF

